% seed = 8307787

mint = 40;
% maxt = 97;

nActs = 22;
dur = [0,6,6,10,3,1,3,1,4,4,10,1,6,9,6,5,4,4,7,6,1,0];

nSkills = 4;
sreq = [| 0,0,0,0,
	| 2,0,2,0,
	| 0,3,3,0,
	| 0,2,0,3,
	| 0,0,3,2,
	| 1,3,0,0,
	| 1,0,3,0,
	| 2,1,0,0,
	| 1,0,0,2,
	| 0,1,2,0,
	| 0,2,2,0,
	| 3,0,0,1,
	| 0,0,3,1,
	| 1,0,0,3,
	| 0,1,3,0,
	| 0,0,1,2,
	| 3,0,2,0,
	| 0,1,2,0,
	| 0,0,2,2,
	| 0,3,3,0,
	| 0,1,1,0,
	| 0,0,0,0, |];

nResources = 13;
mastery = [| false,true,true,true,
	| true,false,false,false,
	| false,false,false,true,
	| false,true,true,true,
	| true,false,false,false,
	| true,true,false,true,
	| false,false,false,true,
	| true,false,true,true,
	| false,false,false,true,
	| false,false,true,true,
	| false,true,false,false,
	| false,true,true,false,
	| true,true,false,false, |];

nPrecs = 31;
pred = [1,1,1,2,2,3,3,3,4,5,5,5,6,7,8,8,9,10,11,12,12,13,14,15,16,17,17,18,19,20,21];
succ = [2,3,4,17,13,9,20,6,5,15,14,7,8,20,10,11,12,12,15,18,19,21,20,16,17,19,21,21,22,22,22];

nUnrels = 108;
unpred = [2,2,2,2,2,2,2,2,2,2,2,2,2,2,2,3,3,3,3,3,4,4,4,4,4,4,4,4,5,5,5,5,5,5,5,5,6,6,6,6,6,7,7,7,7,7,7,7,7,7,7,7,7,7,8,8,8,8,9,9,9,9,9,9,9,9,10,10,10,10,10,10,10,11,11,11,11,11,12,12,12,12,12,12,13,13,13,13,13,13,13,14,14,14,14,14,14,15,15,16,16,17,17,18,18,19,19,20];
unsucc = [3,4,5,6,7,8,9,10,11,12,14,15,16,18,20,4,5,7,13,14,6,8,9,10,11,12,13,18,6,8,9,10,11,12,13,18,7,9,13,14,20,8,9,10,11,12,13,14,15,16,17,18,19,21,9,13,14,20,10,11,13,14,15,16,17,20,11,13,14,15,16,17,20,12,13,14,18,20,13,14,15,16,17,20,14,15,16,17,18,19,20,15,16,17,18,19,21,18,20,18,20,18,20,19,20,20,21,21];

USEFUL_RES = [{},
	{1,2,4,5,6,8,10,12,13},
	{1,4,6,8,10,11,12,13},
	{1,3,4,6,7,8,9,10,11,12,13},
	{1,3,4,6,7,8,9,10,12},
	{1,2,4,5,6,8,11,12,13},
	{1,2,4,5,6,8,10,12,13},
	{1,2,4,5,6,8,11,12,13},
	{1,2,3,4,5,6,7,8,9,10,13},
	{1,4,6,8,10,11,12,13},
	{1,4,6,8,10,11,12,13},
	{1,2,3,4,5,6,7,8,9,10,13},
	{1,3,4,6,7,8,9,10,12},
	{1,2,3,4,5,6,7,8,9,10,13},
	{1,4,6,8,10,11,12,13},
	{1,3,4,6,7,8,9,10,12},
	{1,2,4,5,6,8,10,12,13},
	{1,4,6,8,10,11,12,13},
	{1,3,4,6,7,8,9,10,12},
	{1,4,6,8,10,11,12,13},
	{1,4,6,8,10,11,12,13},
	{}];

POTENTIAL_ACT = [{2,3,4,5,6,7,8,9,10,11,12,13,14,15,16,17,18,19,20,21},
	{2,6,7,8,9,12,14,17},
	{4,5,9,12,13,14,16,19},
	{2,3,4,5,6,7,8,9,10,11,12,13,14,15,16,17,18,19,20,21},
	{2,6,7,8,9,12,14,17},
	{2,3,4,5,6,7,8,9,10,11,12,13,14,15,16,17,18,19,20,21},
	{4,5,9,12,13,14,16,19},
	{2,3,4,5,6,7,8,9,10,11,12,13,14,15,16,17,18,19,20,21},
	{4,5,9,12,13,14,16,19},
	{2,3,4,5,7,9,10,11,12,13,14,15,16,17,18,19,20,21},
	{3,4,6,8,10,11,15,18,20,21},
	{2,3,4,5,6,7,8,10,11,13,15,16,17,18,19,20,21},
	{2,3,4,6,7,8,9,10,11,12,14,15,17,18,20,21}];
